c instancia_01  vars=15  clausulas=25  k=2
p cnf 15 25
7 15 0
-5 10 0
-14 10 0
-9 -4 0
5 3 0
-9 -8 0
2 7 0
6 -2 0
-15 4 0
11 -15 0
-9 8 0
-14 -3 0
-2 6 0
2 6 0
12 3 0
1 13 0
4 13 0
13 -14 0
-14 -7 0
-1 -5 0
-2 12 0
-7 -6 0
-1 -12 0
-5 -10 0
-6 13 0
